(set-logic ALL)
(declare-fun __intToBag_var_4 () (Bag Int))
(define-fun x2 () Int (bag.to.int __intToBag_var_4))
(declare-fun __intToBag_var_3 () (Bag Int))
(define-fun x1 () Int (bag.to.int __intToBag_var_3))
(declare-fun __intToBag_var_2 () (Bag Int))
(define-fun x0 () Int (bag.to.int __intToBag_var_2))
(assert (and (not (= __intToBag_var_2 __intToBag_var_3)) (not (= __intToBag_var_2 __intToBag_var_4)) (not (= __intToBag_var_3 __intToBag_var_4))))
(assert (= (bag.setof __intToBag_var_2) (bag.setof __intToBag_var_3)))
(assert (= (bag.setof __intToBag_var_3) (bag.setof __intToBag_var_4)))
(check-sat)
(get-value (x0))
(get-value ((bag.to.int (bag 0 1))))